20 20
14
3 3 14 17
3 4 17 0
3 5 3 15
3 6 17 14
3 7 3 0
3 8 3 7
3 9 0 11
3 10 17 4
3 11 0 0
3 17 10 0
4 3 10 17
4 9 6 0
4 11 6 9
4 17 13 0
% time elapsed: 0.19 s
% time elapsed: 0.19 s
%%%mzn-stat: initTime=0.000329
%%%mzn-stat: solveTime=0.097108
%%%mzn-stat: solutions=47
%%%mzn-stat: variables=29
%%%mzn-stat: propagators=19
%%%mzn-stat: propagations=109883
%%%mzn-stat: nodes=21546
%%%mzn-stat: failures=10081
%%%mzn-stat: restarts=67
%%%mzn-stat: peakDepth=38
%%%mzn-stat-end
